(set-info :smt-lib-version 2.6)
(set-logic QF_S)
(set-info :source |
Generated by: Murphy Berzish, Mitja Kulczynski, Federico Mora, Florin Manea, Joel Day, Dirk Nowotka, Vijay Ganesh, Zhengyang Lu
Generated on: 2020-10-01
Description: Translated from a collection of real-world regex queries, AutomataArk, collected by Loris D’Antoni and Fang Wang: https://github.com/lorisdanto/automatark
Application: Evaluate solvers on real-world regex queries
Target solver: Z3str3RE, CVC4, OSTRICH, Z3seq, Z3str3, Z3-Trau
Publications: Berzish, M., Kulczynski, M., Mora, F., Manea, F., Day, J. D., Nowotka, D., & Ganesh, V. (2021, July). An SMT solver for regular expressions and linear arithmetic over string length. In CAV 2021.
|)
(set-info :license "https://creativecommons.org/licenses/by/4.0/")
(set-info :category "industrial")
(set-info :status sat)

(declare-const X String)
(assert (not (str.in_re X (re.++ (str.to_re "forum=") (re.+ (re.union (str.to_re " ") (str.to_re "\u{9}") (str.to_re "\u{a}") (str.to_re "\u{c}") (str.to_re "\u{d}"))) (str.to_re "/toolbar/ico/\u{a}")))))
(assert (not (str.in_re X (re.++ (re.* re.allchar) (re.union (str.to_re "$") (str.to_re "S") (str.to_re "s")) (str.to_re "pecia") (re.union (str.to_re "l") (str.to_re "1")) (re.comp (re.union (re.range "0" "9") (re.range "A" "Z") (re.range "a" "z") (str.to_re "_"))) (re.union (str.to_re "O") (str.to_re "o") (str.to_re "0")) (str.to_re "ffer") (re.* re.allchar) (str.to_re "\u{a}")))))
(assert (str.in_re X (re.++ (str.to_re "cyber@yahoo.com") (re.+ (re.union (str.to_re " ") (str.to_re "\u{9}") (str.to_re "\u{a}") (str.to_re "\u{c}") (str.to_re "\u{d}"))) (str.to_re "WindowsAttachedPalas.starware.com/dp/search?x=\u{a}"))))
(assert (not (str.in_re X (re.++ (str.to_re "<") (re.union (str.to_re "i") (str.to_re "I")) (re.union (str.to_re "m") (str.to_re "M")) (re.union (str.to_re "g") (str.to_re "G")) (str.to_re "\u{a}") (re.* (re.comp (str.to_re ">"))) (re.* (re.union (str.to_re "/") (str.to_re ">"))) (re.* (re.union (str.to_re "/") (str.to_re ">"))) (str.to_re ">")))))
(assert (not (str.in_re X (re.++ (str.to_re "/SOAPAction:") (re.* (re.union (str.to_re " ") (str.to_re "\u{9}") (str.to_re "\u{a}") (str.to_re "\u{c}") (str.to_re "\u{d}"))) (str.to_re "\u{22}") (re.+ (re.union (str.to_re "\u{22}") (str.to_re "#"))) (str.to_re "#") (re.union ((_ re.loop 2048 2048) (re.comp (str.to_re "\u{22}"))) (re.+ (re.comp (str.to_re "\u{22}")))) (str.to_re "/Hsi\u{a}")))))
(check-sat)

(exit)
